(set-logic QF_LIA)
(declare-fun x0 () Int)
(declare-fun x1 () Int)
(declare-fun x2 () Int)
(declare-fun x3 () Int)
(declare-fun x4 () Int)
(declare-fun x5 () Int)
(declare-fun x6 () Int)
(declare-fun x7 () Int)
(declare-fun x8 () Int)
(declare-fun x9 () Int)
(declare-fun A0 () Bool)
(declare-fun A1 () Bool)
(declare-fun A2 () Bool)
(declare-fun A3 () Bool)
(declare-fun A4 () Bool)
(declare-fun A5 () Bool)
(declare-fun A6 () Bool)
(declare-fun A7 () Bool)
(declare-fun A8 () Bool)
(declare-fun A9 () Bool)
(assert (let ((.def_0 (* (- 1) x1))) (let ((.def_1 (< .def_0 1))) (let ((.def_2 (not .def_1))) (let ((.def_3 (or .def_2 A8))) (let ((.def_4 (* (- 1) x9))) (let ((.def_5 (< .def_4 (- 1)))) (let ((.def_6 (not .def_5))) (let ((.def_7 (* (- 1) x8))) (let ((.def_8 (* (- 1) x7))) (let ((.def_9 (+ .def_8 .def_7))) (let ((.def_10 (< .def_9 (- 1)))) (let ((.def_11 (or .def_10 .def_6))) (let ((.def_12 (or .def_11 .def_3))) (let ((.def_13 (not A9))) (let ((.def_14 (or .def_13 A7))) (let ((.def_15 (not .def_14))) (let ((.def_16 (* 1 x0))) (let ((.def_17 (< .def_16 1))) (let ((.def_18 (not .def_17))) (let ((.def_19 (or A2 .def_18))) (let ((.def_20 (or .def_19 .def_15))) (let ((.def_21 (and .def_20 .def_12))) (let ((.def_22 (not .def_21))) (let ((.def_23 (< .def_8 1))) (let ((.def_24 (not .def_23))) (let ((.def_25 (or .def_24 A9))) (let ((.def_26 (or A3 A1))) (let ((.def_27 (and .def_26 .def_25))) (let ((.def_28 (* 1 x1))) (let ((.def_29 (+ .def_28 .def_7))) (let ((.def_30 (< .def_29 1))) (let ((.def_31 (not .def_30))) (let ((.def_32 (or .def_31 A2))) (let ((.def_33 (* (- 1) x0))) (let ((.def_34 (< .def_33 1))) (let ((.def_35 (not .def_34))) (let ((.def_36 (* 1 x5))) (let ((.def_37 (+ .def_0 .def_36))) (let ((.def_38 (< .def_37 (- 1)))) (let ((.def_39 (= .def_38 .def_35))) (let ((.def_40 (not .def_39))) (let ((.def_41 (and .def_40 .def_32))) (let ((.def_42 (or .def_41 .def_27))) (let ((.def_43 (not .def_42))) (let ((.def_44 (and .def_43 .def_22))) (let ((.def_45 (not A5))) (let ((.def_46 (* (- 1) x5))) (let ((.def_47 (+ .def_28 .def_46))) (let ((.def_48 (< .def_47 (- 1)))) (let ((.def_49 (= .def_48 .def_45))) (let ((.def_50 (or A8 A8))) (let ((.def_51 (not .def_50))) (let ((.def_52 (or .def_51 .def_49))) (let ((.def_53 (not .def_52))) (let ((.def_54 (* 1 x2))) (let ((.def_55 (< .def_54 1))) (let ((.def_56 (and .def_55 A0))) (let ((.def_57 (* 1 x6))) (let ((.def_58 (< .def_57 1))) (let ((.def_59 (not .def_58))) (let ((.def_60 (< .def_7 1))) (let ((.def_61 (or .def_60 .def_59))) (let ((.def_62 (and .def_61 .def_56))) (let ((.def_63 (not .def_62))) (let ((.def_64 (or .def_63 .def_53))) (let ((.def_65 (not .def_64))) (let ((.def_66 (not A3))) (let ((.def_67 (= A3 .def_66))) (let ((.def_68 (+ .def_57 .def_54))) (let ((.def_69 (< .def_68 (- 1)))) (let ((.def_70 (not .def_69))) (let ((.def_71 (and A3 .def_70))) (let ((.def_72 (not .def_71))) (let ((.def_73 (and .def_72 .def_67))) (let ((.def_74 (not .def_73))) (let ((.def_75 (* 1 x8))) (let ((.def_76 (< .def_75 (- 1)))) (let ((.def_77 (not .def_76))) (let ((.def_78 (and A5 .def_77))) (let ((.def_79 (not .def_78))) (let ((.def_80 (* 1 x4))) (let ((.def_81 (+ .def_4 .def_80))) (let ((.def_82 (< .def_81 1))) (let ((.def_83 (not .def_82))) (let ((.def_84 (not A8))) (let ((.def_85 (or .def_84 .def_83))) (let ((.def_86 (and .def_85 .def_79))) (let ((.def_87 (= .def_86 .def_74))) (let ((.def_88 (not .def_87))) (let ((.def_89 (= .def_88 .def_65))) (let ((.def_90 (not .def_89))) (let ((.def_91 (= .def_90 .def_44))) (let ((.def_92 (not .def_91))) (let ((.def_93 (+ .def_4 .def_28))) (let ((.def_94 (< .def_93 (- 1)))) (let ((.def_95 (not .def_94))) (let ((.def_96 (not A4))) (let ((.def_97 (and .def_96 .def_95))) (let ((.def_98 (not A1))) (let ((.def_99 (or .def_98 .def_6))) (let ((.def_100 (not .def_99))) (let ((.def_101 (and .def_100 .def_97))) (let ((.def_102 (not .def_101))) (let ((.def_103 (< .def_4 1))) (let ((.def_104 (not .def_103))) (let ((.def_105 (not A0))) (let ((.def_106 (and .def_105 .def_104))) (let ((.def_107 (+ .def_75 .def_57))) (let ((.def_108 (< .def_107 (- 1)))) (let ((.def_109 (or A9 .def_108))) (let ((.def_110 (not .def_109))) (let ((.def_111 (and .def_110 .def_106))) (let ((.def_112 (not .def_111))) (let ((.def_113 (or .def_112 .def_102))) (let ((.def_114 (not .def_113))) (let ((.def_115 (or .def_77 A1))) (let ((.def_116 (not .def_115))) (let ((.def_117 (or A0 .def_45))) (let ((.def_118 (not .def_117))) (let ((.def_119 (or .def_118 .def_116))) (let ((.def_120 (* (- 1) x2))) (let ((.def_121 (< .def_120 (- 1)))) (let ((.def_122 (and .def_121 A8))) (let ((.def_123 (+ .def_36 .def_16))) (let ((.def_124 (< .def_123 (- 1)))) (let ((.def_125 (and .def_124 .def_66))) (let ((.def_126 (not .def_125))) (let ((.def_127 (= .def_126 .def_122))) (let ((.def_128 (not .def_127))) (let ((.def_129 (and .def_128 .def_119))) (let ((.def_130 (not .def_129))) (let ((.def_131 (= .def_130 .def_114))) (let ((.def_132 (not .def_131))) (let ((.def_133 (+ .def_33 .def_57))) (let ((.def_134 (< .def_133 1))) (let ((.def_135 (or A9 .def_134))) (let ((.def_136 (not .def_135))) (let ((.def_137 (not .def_55))) (let ((.def_138 (and .def_84 .def_137))) (let ((.def_139 (not .def_138))) (let ((.def_140 (and .def_139 .def_136))) (let ((.def_141 (not .def_140))) (let ((.def_142 (* 1 x3))) (let ((.def_143 (+ .def_7 .def_142))) (let ((.def_144 (< .def_143 1))) (let ((.def_145 (not .def_144))) (let ((.def_146 (and A8 .def_145))) (let ((.def_147 (not .def_146))) (let ((.def_148 (+ .def_80 .def_33))) (let ((.def_149 (< .def_148 1))) (let ((.def_150 (and .def_149 A8))) (let ((.def_151 (not .def_150))) (let ((.def_152 (and .def_151 .def_147))) (let ((.def_153 (not .def_152))) (let ((.def_154 (or .def_153 .def_141))) (let ((.def_155 (not .def_154))) (let ((.def_156 (and .def_35 .def_45))) (let ((.def_157 (+ .def_16 .def_57))) (let ((.def_158 (< .def_157 1))) (let ((.def_159 (not .def_158))) (let ((.def_160 (and A4 .def_159))) (let ((.def_161 (not .def_160))) (let ((.def_162 (and .def_161 .def_156))) (let ((.def_163 (not .def_162))) (let ((.def_164 (< .def_46 1))) (let ((.def_165 (not A2))) (let ((.def_166 (or .def_165 .def_164))) (let ((.def_167 (+ .def_16 .def_7))) (let ((.def_168 (< .def_167 1))) (let ((.def_169 (not .def_168))) (let ((.def_170 (+ .def_8 .def_16))) (let ((.def_171 (< .def_170 (- 1)))) (let ((.def_172 (or .def_171 .def_169))) (let ((.def_173 (not .def_172))) (let ((.def_174 (and .def_173 .def_166))) (let ((.def_175 (and .def_174 .def_163))) (let ((.def_176 (and .def_175 .def_155))) (let ((.def_177 (not .def_176))) (let ((.def_178 (and .def_177 .def_132))) (let ((.def_179 (not .def_178))) (let ((.def_180 (and .def_179 .def_92))) (let ((.def_181 (* (- 1) x4))) (let ((.def_182 (< .def_181 (- 1)))) (let ((.def_183 (and A4 .def_182))) (let ((.def_184 (* 1 x7))) (let ((.def_185 (+ .def_16 .def_184))) (let ((.def_186 (< .def_185 1))) (let ((.def_187 (and A1 .def_186))) (let ((.def_188 (not .def_187))) (let ((.def_189 (or .def_188 .def_183))) (let ((.def_190 (* (- 1) x3))) (let ((.def_191 (< .def_190 1))) (let ((.def_192 (< .def_80 1))) (let ((.def_193 (or .def_192 .def_191))) (let ((.def_194 (not .def_193))) (let ((.def_195 (+ .def_54 .def_75))) (let ((.def_196 (< .def_195 (- 1)))) (let ((.def_197 (not .def_196))) (let ((.def_198 (+ .def_36 .def_181))) (let ((.def_199 (< .def_198 1))) (let ((.def_200 (or .def_199 .def_197))) (let ((.def_201 (and .def_200 .def_194))) (let ((.def_202 (not .def_201))) (let ((.def_203 (or .def_202 .def_189))) (let ((.def_204 (and .def_98 A0))) (let ((.def_205 (+ .def_54 .def_8))) (let ((.def_206 (< .def_205 (- 1)))) (let ((.def_207 (= .def_206 .def_13))) (let ((.def_208 (not .def_207))) (let ((.def_209 (= .def_208 .def_204))) (let ((.def_210 (+ .def_75 .def_36))) (let ((.def_211 (< .def_210 1))) (let ((.def_212 (and .def_211 A9))) (let ((.def_213 (not .def_212))) (let ((.def_214 (< .def_190 (- 1)))) (let ((.def_215 (not .def_214))) (let ((.def_216 (+ .def_184 .def_46))) (let ((.def_217 (< .def_216 (- 1)))) (let ((.def_218 (not .def_217))) (let ((.def_219 (and .def_218 .def_215))) (let ((.def_220 (and .def_219 .def_213))) (let ((.def_221 (not .def_220))) (let ((.def_222 (and .def_221 .def_209))) (let ((.def_223 (or .def_222 .def_203))) (let ((.def_224 (not .def_223))) (let ((.def_225 (not A6))) (let ((.def_226 (and .def_225 .def_105))) (let ((.def_227 (and A1 A0))) (let ((.def_228 (not .def_227))) (let ((.def_229 (and .def_228 .def_226))) (let ((.def_230 (+ .def_16 .def_80))) (let ((.def_231 (< .def_230 (- 1)))) (let ((.def_232 (+ .def_7 .def_0))) (let ((.def_233 (< .def_232 (- 1)))) (let ((.def_234 (not .def_233))) (let ((.def_235 (or .def_234 .def_231))) (let ((.def_236 (= .def_104 A3))) (let ((.def_237 (not .def_236))) (let ((.def_238 (or .def_237 .def_235))) (let ((.def_239 (and .def_238 .def_229))) (let ((.def_240 (+ .def_80 .def_4))) (let ((.def_241 (< .def_240 (- 1)))) (let ((.def_242 (not .def_241))) (let ((.def_243 (not A7))) (let ((.def_244 (and .def_243 .def_242))) (let ((.def_245 (< .def_80 (- 1)))) (let ((.def_246 (not .def_245))) (let ((.def_247 (* (- 1) x6))) (let ((.def_248 (< .def_247 1))) (let ((.def_249 (not .def_248))) (let ((.def_250 (or .def_249 .def_246))) (let ((.def_251 (not .def_250))) (let ((.def_252 (or .def_251 .def_244))) (let ((.def_253 (not .def_252))) (let ((.def_254 (+ .def_8 .def_46))) (let ((.def_255 (< .def_254 1))) (let ((.def_256 (and A2 .def_255))) (let ((.def_257 (not .def_256))) (let ((.def_258 (+ .def_0 .def_8))) (let ((.def_259 (< .def_258 1))) (let ((.def_260 (not .def_259))) (let ((.def_261 (or .def_96 .def_260))) (let ((.def_262 (not .def_261))) (let ((.def_263 (or .def_262 .def_257))) (let ((.def_264 (or .def_263 .def_253))) (let ((.def_265 (not .def_264))) (let ((.def_266 (or .def_265 .def_239))) (let ((.def_267 (or .def_266 .def_224))) (let ((.def_268 (not .def_267))) (let ((.def_269 (* 1 x9))) (let ((.def_270 (+ .def_269 .def_80))) (let ((.def_271 (< .def_270 1))) (let ((.def_272 (+ .def_120 .def_0))) (let ((.def_273 (< .def_272 1))) (let ((.def_274 (or .def_273 .def_271))) (let ((.def_275 (< .def_7 (- 1)))) (let ((.def_276 (< .def_157 (- 1)))) (let ((.def_277 (not .def_276))) (let ((.def_278 (or .def_277 .def_275))) (let ((.def_279 (or .def_278 .def_274))) (let ((.def_280 (not .def_279))) (let ((.def_281 (+ .def_247 .def_75))) (let ((.def_282 (< .def_281 (- 1)))) (let ((.def_283 (or A0 .def_282))) (let ((.def_284 (not .def_283))) (let ((.def_285 (or A7 .def_98))) (let ((.def_286 (= .def_285 .def_284))) (let ((.def_287 (not .def_286))) (let ((.def_288 (or .def_287 .def_280))) (let ((.def_289 (not .def_288))) (let ((.def_290 (and .def_225 A5))) (let ((.def_291 (not .def_290))) (let ((.def_292 (+ .def_54 .def_57))) (let ((.def_293 (< .def_292 1))) (let ((.def_294 (or .def_293 .def_66))) (let ((.def_295 (not .def_294))) (let ((.def_296 (and .def_295 .def_291))) (let ((.def_297 (+ .def_190 .def_80))) (let ((.def_298 (< .def_297 1))) (let ((.def_299 (or .def_84 .def_298))) (let ((.def_300 (not .def_299))) (let ((.def_301 (or .def_105 A0))) (let ((.def_302 (= .def_301 .def_300))) (let ((.def_303 (and .def_302 .def_296))) (let ((.def_304 (and .def_303 .def_289))) (let ((.def_305 (not .def_304))) (let ((.def_306 (+ .def_190 .def_8))) (let ((.def_307 (< .def_306 1))) (let ((.def_308 (not .def_307))) (let ((.def_309 (or .def_308 .def_243))) (let ((.def_310 (not .def_309))) (let ((.def_311 (< .def_54 (- 1)))) (let ((.def_312 (and .def_66 .def_311))) (let ((.def_313 (and .def_312 .def_310))) (let ((.def_314 (+ .def_7 .def_8))) (let ((.def_315 (< .def_314 1))) (let ((.def_316 (< .def_254 (- 1)))) (let ((.def_317 (or .def_316 .def_315))) (let ((.def_318 (< .def_269 (- 1)))) (let ((.def_319 (+ .def_4 .def_54))) (let ((.def_320 (< .def_319 (- 1)))) (let ((.def_321 (= .def_320 .def_318))) (let ((.def_322 (and .def_321 .def_317))) (let ((.def_323 (not .def_322))) (let ((.def_324 (and .def_323 .def_313))) (let ((.def_325 (+ .def_33 .def_36))) (let ((.def_326 (< .def_325 (- 1)))) (let ((.def_327 (not .def_326))) (let ((.def_328 (+ .def_80 .def_142))) (let ((.def_329 (< .def_328 (- 1)))) (let ((.def_330 (or .def_329 .def_327))) (let ((.def_331 (not .def_330))) (let ((.def_332 (and .def_84 .def_84))) (let ((.def_333 (or .def_332 .def_331))) (let ((.def_334 (and .def_165 A0))) (let ((.def_335 (< .def_184 (- 1)))) (let ((.def_336 (not .def_335))) (let ((.def_337 (< .def_181 1))) (let ((.def_338 (not .def_337))) (let ((.def_339 (= .def_338 .def_336))) (let ((.def_340 (or .def_339 .def_334))) (let ((.def_341 (not .def_340))) (let ((.def_342 (and .def_341 .def_333))) (let ((.def_343 (not .def_342))) (let ((.def_344 (and .def_343 .def_324))) (let ((.def_345 (not .def_344))) (let ((.def_346 (and .def_345 .def_305))) (let ((.def_347 (not .def_346))) (let ((.def_348 (or .def_347 .def_268))) (let ((.def_349 (not .def_348))) (let ((.def_350 (and .def_349 .def_180))) (let ((.def_351 (<= x9 1))) (let ((.def_352 (<= 0 x9))) (let ((.def_353 (<= x8 1))) (let ((.def_354 (<= 0 x8))) (let ((.def_355 (<= x7 1))) (let ((.def_356 (<= 0 x7))) (let ((.def_357 (<= x6 1))) (let ((.def_358 (<= 0 x6))) (let ((.def_359 (<= x5 1))) (let ((.def_360 (<= 0 x5))) (let ((.def_361 (<= x4 1))) (let ((.def_362 (<= 0 x4))) (let ((.def_363 (<= x3 1))) (let ((.def_364 (<= 0 x3))) (let ((.def_365 (<= x2 1))) (let ((.def_366 (<= 0 x2))) (let ((.def_367 (<= x1 1))) (let ((.def_368 (<= 0 x1))) (let ((.def_369 (<= x0 1))) (let ((.def_370 (<= 0 x0))) (let ((.def_371 (and .def_370 .def_369 .def_368 .def_367 .def_366 .def_365 .def_364 .def_363 .def_362 .def_361 .def_360 .def_359 .def_358 .def_357 .def_356 .def_355 .def_354 .def_353 .def_352 .def_351 .def_350))) .def_371)))))))))))))))))))))))))))))))))))))))))))))))))))))))))))))))))))))))))))))))))))))))))))))))))))))))))))))))))))))))))))))))))))))))))))))))))))))))))))))))))))))))))))))))))))))))))))))))))))))))))))))))))))))))))))))))))))))))))))))))))))))))))))))))))))))))))))))))))))))))))))))))))))))))))))))))))))))))))))))))))))))))))))))))))))))))))))))))))))))))))))))))))))))
(check-sat)
